(set-info :smt-lib-version 2.7)
(set-logic QF_NIA)
(set-info :source  | 
Generated by: Johannes Bauer
Generated on: 2026-06-18
Generator: mgm A12 Test Data Generator
Application: ELSTER
Target solver: Z3, Yices2, CVC5
Script is based on the ELSTER form: capital gains tax registration (A / KapEStInvStG)
Characteristic of the form: easy.
In this script, all terms of the form (* x1 x2 x3 ...) are in the form (* x1 c2 c3 ...),
all terms of the form (div x y) are in the form (div x c) and the symbol mod is exclusively used in the form (mod x c),
where x, y, and x1, x2, x3 ... are free constants and c, c2, c3 ... are terms in the form n or (-n) for some numeral n.
The script starts with the base constraints, which define a valid data set for the corresponding form. After the first (push 1), control constraints follow.
The goal of the control constraints in this script is to fill up a data set with values, after the characteristics of the high test coverage were placed.
number variables: 235, number constraints: 223
"https://www.elster.de/eportal/start?locale=en_US"
"https://www.mgm-tp.com/q12-tdg.html"
"https://a12.ai/public-sector"
|)
(set-info :license "https://creativecommons.org/licenses/by/4.0/")
(set-info :category "industrial")
(set-info :major-phase |variable declarations|)
(declare-fun I1-i () Int)
(declare-fun I2-N () Int)
(declare-fun B3-F () Bool)
(declare-fun I3-i () Int)
(declare-fun B4-F () Bool)
(declare-fun B5-F () Bool)
(declare-fun B6-F () Bool)
(declare-fun B7-F () Bool)
(declare-fun B8-F () Bool)
(declare-fun I8-y () Int)
(declare-fun B9-F () Bool)
(declare-fun I9-N () Int)
(declare-fun B10-F () Bool)
(declare-fun B11-F () Bool)
(declare-fun B12-F () Bool)
(declare-fun I12-N () Int)
(declare-fun B13-F () Bool)
(declare-fun I13-y () Int)
(declare-fun I13-m () Int)
(declare-fun I13-d () Int)
(declare-fun B14-F () Bool)
(declare-fun I14-y () Int)
(declare-fun I14-m () Int)
(declare-fun I14-d () Int)
(declare-fun B15-F () Bool)
(declare-fun B16-F () Bool)
(declare-fun B17-F () Bool)
(declare-fun B18-F () Bool)
(declare-fun I18 () Int)
(declare-fun B19-F () Bool)
(declare-fun I19 () Int)
(declare-fun B20-F () Bool)
(declare-fun B21-F () Bool)
(declare-fun B22-F () Bool)
(declare-fun B23-F () Bool)
(declare-fun B24-F () Bool)
(declare-fun I24 () Int)
(declare-fun B25-F () Bool)
(declare-fun B26-F () Bool)
(declare-fun B27-F () Bool)
(declare-fun I27 () Int)
(declare-fun B28-F () Bool)
(declare-fun I28 () Int)
(declare-fun B29-F () Bool)
(declare-fun B30-F () Bool)
(declare-fun B31-F () Bool)
(declare-fun I31-s-y () Int)
(declare-fun I31-s-m () Int)
(declare-fun I31-s-d () Int)
(declare-fun I31-e-y () Int)
(declare-fun I31-e-m () Int)
(declare-fun I31-e-d () Int)
(declare-fun B32-F () Bool)
(declare-fun I32-y () Int)
(declare-fun I32-m () Int)
(declare-fun I32-d () Int)
(declare-fun B33-F () Bool)
(declare-fun I33-y () Int)
(declare-fun I33-m () Int)
(declare-fun I33-d () Int)
(declare-fun B34-F () Bool)
(declare-fun B35-F () Bool)
(declare-fun B36-F () Bool)
(declare-fun I36 () Int)
(declare-fun B37-F () Bool)
(declare-fun I37 () Int)
(declare-fun B38-F () Bool)
(declare-fun I38 () Int)
(declare-fun B39-F () Bool)
(declare-fun B40-F () Bool)
(declare-fun B41-F () Bool)
(declare-fun I41 () Int)
(declare-fun B42-F () Bool)
(declare-fun I42 () Int)
(declare-fun B43-F () Bool)
(declare-fun I43 () Int)
(declare-fun B44-F () Bool)
(declare-fun B45-F () Bool)
(declare-fun B46-F () Bool)
(declare-fun I46 () Int)
(declare-fun B47-F () Bool)
(declare-fun I47 () Int)
(declare-fun B48-F () Bool)
(declare-fun I48 () Int)
(declare-fun I49-s-y () Int)
(declare-fun I49-s-m () Int)
(declare-fun I49-s-d () Int)
(declare-fun I49-e-y () Int)
(declare-fun I49-e-m () Int)
(declare-fun I49-e-d () Int)
(declare-fun I50-y () Int)
(declare-fun I50-m () Int)
(declare-fun I50-d () Int)
(declare-fun I51-y () Int)
(declare-fun I51-m () Int)
(declare-fun I51-d () Int)
(declare-fun B52-F () Bool)
(declare-fun B53-F () Bool)
(declare-fun B54-F () Bool)
(declare-fun I54 () Int)
(declare-fun B55-F () Bool)
(declare-fun I55 () Int)
(declare-fun B56-F () Bool)
(declare-fun B57-F () Bool)
(declare-fun B58-F () Bool)
(declare-fun B59-F () Bool)
(declare-fun I59 () Int)
(declare-fun B60-F () Bool)
(declare-fun B61-F () Bool)
(declare-fun B62-F () Bool)
(declare-fun B63-F () Bool)
(declare-fun I63-N () Int)
(declare-fun B64-F () Bool)
(declare-fun I64-y () Int)
(declare-fun I64-m () Int)
(declare-fun I64-d () Int)
(declare-fun B65-F () Bool)
(declare-fun I65-y () Int)
(declare-fun I65-m () Int)
(declare-fun I65-d () Int)
(declare-fun B66-F () Bool)
(declare-fun I66-y () Int)
(declare-fun I66-m () Int)
(declare-fun I66-d () Int)
(declare-fun B67-F () Bool)
(declare-fun B68-F () Bool)
(declare-fun B69-F () Bool)
(declare-fun I69 () Int)
(declare-fun B70-F () Bool)
(declare-fun I70 () Int)
(declare-fun B71-F () Bool)
(declare-fun I71 () Int)
(declare-fun B72-F () Bool)
(declare-fun B73-F () Bool)
(declare-fun B74-F () Bool)
(declare-fun I74 () Int)
(declare-fun B75-F () Bool)
(declare-fun I75 () Int)
(declare-fun B76-F () Bool)
(declare-fun I76 () Int)
(declare-fun B77-F () Bool)
(declare-fun B78-F () Bool)
(declare-fun B79-F () Bool)
(declare-fun B80-F () Bool)
(declare-fun I80 () Int)
(declare-fun B81-F () Bool)
(declare-fun I81 () Int)
(declare-fun B82-F () Bool)
(declare-fun B83-F () Bool)
(declare-fun I83-y () Int)
(declare-fun I83-m () Int)
(declare-fun I83-d () Int)
(declare-fun B84-F () Bool)
(declare-fun B85-F () Bool)
(declare-fun B86-F () Bool)
(declare-fun B87-F () Bool)
(declare-fun I87 () Int)
(declare-fun B88-F () Bool)
(declare-fun I88 () Int)
(declare-fun B89-F () Bool)
(declare-fun I89 () Int)
(declare-fun B90-F () Bool)
(declare-fun B91-F () Bool)
(declare-fun B92-F () Bool)
(declare-fun I92 () Int)
(declare-fun B93-F () Bool)
(declare-fun I93 () Int)
(declare-fun B94-F () Bool)
(declare-fun I94 () Int)
(declare-fun B95-F () Bool)
(declare-fun B96-F () Bool)
(declare-fun B97-F () Bool)
(declare-fun I97 () Int)
(declare-fun B98-F () Bool)
(declare-fun I98 () Int)
(declare-fun B99-F () Bool)
(declare-fun I99 () Int)
(declare-fun B100-F () Bool)
(declare-fun B101-F () Bool)
(declare-fun B102-F () Bool)
(declare-fun B103-F () Bool)
(declare-fun I103 () Int)
(declare-fun I104 () Int)
(declare-fun B105-F () Bool)
(declare-fun I105-y () Int)
(declare-fun I105-m () Int)
(declare-fun I105-d () Int)
(declare-fun B106-F () Bool)
(declare-fun B107-F () Bool)
(declare-fun I107 () Int)
(declare-fun B108-F () Bool)
(declare-fun I108 () Int)
(declare-fun B109-F () Bool)
(declare-fun I109 () Int)
(declare-fun B110-F () Bool)
(declare-fun I110 () Int)
(declare-fun B111-F () Bool)
(declare-fun I111 () Int)
(declare-fun B112-F () Bool)
(declare-fun I112 () Int)
(declare-fun B113-F () Bool)
(declare-fun I113 () Int)
(declare-fun B114-F () Bool)
(declare-fun I114 () Int)
(declare-fun B115-F () Bool)
(declare-fun I115 () Int)
(declare-fun B116-F () Bool)
(declare-fun I116 () Int)
(declare-fun B117-F () Bool)
(declare-fun I117 () Int)
(declare-fun B118-F () Bool)
(declare-fun B119-F () Bool)
(declare-fun I119 () Int)
(declare-fun B120-F () Bool)
(declare-fun I120 () Int)
(declare-fun B121-F () Bool)
(declare-fun I121 () Int)
(declare-fun B122-F () Bool)
(declare-fun I122 () Int)
(declare-fun B123-F () Bool)
(declare-fun I123 () Int)
(declare-fun B124-F () Bool)
(declare-fun I124 () Int)
(declare-fun I125 () Int)
(declare-fun B126-F () Bool)
(declare-fun B127-F () Bool)
(declare-fun B128-F () Bool)
(declare-fun B129-F () Bool)
(declare-fun B130-F () Bool)
(declare-fun B131-F () Bool)
(declare-fun B132-F () Bool)
(declare-fun B133-F () Bool)
(declare-fun B134-F () Bool)
(declare-fun B135-F () Bool)
(declare-fun B136-F () Bool)
(set-info :major-phase |base constraints|)
(set-info :base-constraint-type |constraints defining hierarchy (group is filled, if a child is filled)|)
(assert (not (or B105-F B106-F)))
(assert (= B106-F (or B107-F B108-F)))
(assert (= B126-F (or B127-F B128-F)))
(assert B7-F)
(assert (= B11-F (or B12-F B13-F B14-F B15-F B20-F B25-F)))
(assert (= B15-F (or B16-F B17-F B18-F B19-F)))
(assert (= B20-F (or B21-F B22-F B23-F B24-F)))
(assert (= B25-F (or B26-F B27-F B28-F B29-F)))
(assert (= B62-F (or B63-F B64-F B65-F B66-F B67-F B72-F B77-F)))
(assert (= B67-F (or B68-F B69-F B70-F B71-F)))
(assert (= B72-F (or B73-F B74-F B75-F B76-F)))
(assert (= B77-F (or B78-F B79-F B80-F B81-F)))
(assert (= B82-F (or B83-F B84-F B85-F B90-F B95-F B100-F)))
(assert (= B85-F (or B86-F B87-F B88-F B89-F)))
(assert (= B90-F (or B91-F B92-F B93-F B94-F)))
(assert (= B95-F (or B96-F B97-F B98-F B99-F)))
(assert (= B100-F (or B101-F B102-F B103-F)))
(assert (= B30-F (or B31-F B32-F B33-F B34-F B39-F B44-F)))
(assert (= B34-F (or B35-F B36-F B37-F B38-F)))
(assert (= B39-F (or B40-F B41-F B42-F B43-F)))
(assert (= B44-F (or B45-F B46-F B47-F B48-F)))
(assert (= B52-F (or B53-F B54-F B55-F B56-F)))
(assert (= B57-F (or B58-F B59-F B60-F B61-F)))
(assert (= B129-F (or B130-F B131-F)))
(assert (= B131-F (or B132-F B133-F B134-F B135-F)))
(assert (or B109-F B110-F B111-F B112-F B113-F B114-F B115-F B116-F B117-F B118-F B119-F B120-F B121-F B122-F B123-F B124-F))
(set-info :base-constraint-type |domainconstraints number-fields|)
(assert (ite B107-F (and (<= I107 999999999999) (>= I107 0)) (= I107 0)))
(assert (ite B108-F (and (<= I108 999999999999) (>= I108 0)) (= I108 0)))
(assert (and (<= I104 99999999999999) (>= I104 (- 99999999999999))))
(assert (ite B17-F true false))
(assert (ite B18-F (and (<= I18 999999999999) (>= I18 (- 999999999999))) (= I18 0)))
(assert (ite B19-F (and (<= I19 99999999999999) (>= I19 (- 99999999999999))) (= I19 0)))
(assert (ite B22-F true false))
(assert (ite B23-F true false))
(assert (ite B24-F (and (<= I24 99999999999999) (>= I24 (- 99999999999999))) (= I24 0)))
(assert (ite B27-F (and (<= I27 999999999999) (>= I27 (- 999999999999))) (= I27 0)))
(assert (ite B28-F (and (<= I28 999999999999) (>= I28 (- 999999999999))) (= I28 0)))
(assert (ite B29-F true false))
(assert (ite B69-F (and (<= I69 999999999999) (>= I69 (- 999999999999))) (= I69 0)))
(assert (ite B70-F (and (<= I70 999999999999) (>= I70 (- 999999999999))) (= I70 0)))
(assert (ite B71-F (and (<= I71 99999999999999) (>= I71 (- 99999999999999))) (= I71 0)))
(assert (ite B74-F (and (<= I74 999999999999) (>= I74 (- 999999999999))) (= I74 0)))
(assert (ite B75-F (and (<= I75 999999999999) (>= I75 (- 999999999999))) (= I75 0)))
(assert (ite B76-F (and (<= I76 99999999999999) (>= I76 (- 99999999999999))) (= I76 0)))
(assert (ite B79-F true false))
(assert (ite B80-F (and (<= I80 999999999999) (>= I80 (- 999999999999))) (= I80 0)))
(assert (ite B81-F (and (<= I81 99999999999999) (>= I81 (- 99999999999999))) (= I81 0)))
(assert (ite B87-F (and (<= I87 999999999999) (>= I87 0)) (= I87 0)))
(assert (ite B88-F (and (<= I88 999999999999) (>= I88 0)) (= I88 0)))
(assert (ite B89-F (and (<= I89 99999999999999) (>= I89 0)) (= I89 0)))
(assert (ite B92-F (and (<= I92 999999999999) (>= I92 0)) (= I92 0)))
(assert (ite B93-F (and (<= I93 999999999999) (>= I93 0)) (= I93 0)))
(assert (ite B94-F (and (<= I94 99999999999999) (>= I94 0)) (= I94 0)))
(assert (ite B97-F (and (<= I97 999999999999) (>= I97 0)) (= I97 0)))
(assert (ite B98-F (and (<= I98 999999999999) (>= I98 0)) (= I98 0)))
(assert (ite B99-F (and (<= I99 99999999999999) (>= I99 0)) (= I99 0)))
(assert (ite B101-F true false))
(assert (ite B102-F true false))
(assert (ite B103-F (and (<= I103 99999999999999) (>= I103 (- 99999999999999))) (= I103 0)))
(assert (ite B36-F (and (<= I36 999999999999) (>= I36 (- 999999999999))) (= I36 0)))
(assert (ite B37-F (and (<= I37 999999999999) (>= I37 (- 999999999999))) (= I37 0)))
(assert (ite B38-F (and (<= I38 99999999999999) (>= I38 (- 99999999999999))) (= I38 0)))
(assert (ite B41-F (and (<= I41 999999999999) (>= I41 (- 999999999999))) (= I41 0)))
(assert (ite B42-F (and (<= I42 999999999999) (>= I42 (- 999999999999))) (= I42 0)))
(assert (ite B43-F (and (<= I43 99999999999999) (>= I43 (- 99999999999999))) (= I43 0)))
(assert (ite B46-F (and (<= I46 999999999999) (>= I46 (- 999999999999))) (= I46 0)))
(assert (ite B47-F (and (<= I47 999999999999) (>= I47 (- 999999999999))) (= I47 0)))
(assert (ite B48-F (and (<= I48 99999999999999) (>= I48 (- 99999999999999))) (= I48 0)))
(assert (ite B54-F (and (<= I54 999999999999) (>= I54 (- 999999999999))) (= I54 0)))
(assert (ite B55-F (and (<= I55 999999999999) (>= I55 (- 999999999999))) (= I55 0)))
(assert (ite B56-F true false))
(assert (ite B59-F (and (<= I59 999999999999) (>= I59 (- 999999999999))) (= I59 0)))
(assert (ite B60-F true false))
(assert (ite B61-F true false))
(assert (ite B112-F (and (<= I112 99999999999999) (>= I112 (- 9999999999999))) (= I112 0)))
(assert (ite B111-F (and (<= I111 99999999999999) (>= I111 (- 9999999999999))) (= I111 0)))
(assert (ite B109-F (and (<= I109 99999999999999) (>= I109 (- 9999999999999))) (= I109 0)))
(assert (ite B110-F (and (<= I110 99999999999999) (>= I110 (- 9999999999999))) (= I110 0)))
(assert (ite B113-F (and (<= I113 99999999999999) (>= I113 (- 9999999999999))) (= I113 0)))
(assert (ite B115-F (and (<= I115 99999999999999) (>= I115 (- 9999999999999))) (= I115 0)))
(assert (ite B114-F (and (<= I114 99999999999999) (>= I114 (- 9999999999999))) (= I114 0)))
(assert (ite B116-F (and (<= I116 99999999999999) (>= I116 (- 9999999999999))) (= I116 0)))
(assert (ite B117-F (and (<= I117 99999999999999) (>= I117 (- 9999999999999))) (= I117 0)))
(assert (ite B118-F true false))
(assert (ite B122-F (and (<= I122 99999999999999) (>= I122 (- 9999999999999))) (= I122 0)))
(assert (ite B119-F (and (<= I119 99999999999999) (>= I119 (- 9999999999999))) (= I119 0)))
(assert (ite B120-F (and (<= I120 99999999999999) (>= I120 (- 9999999999999))) (= I120 0)))
(assert (ite B121-F (and (<= I121 99999999999999) (>= I121 (- 9999999999999))) (= I121 0)))
(assert (ite B123-F (and (<= I123 99999999999999) (>= I123 (- 9999999999999))) (= I123 0)))
(assert (ite B124-F (and (<= I124 99999999999999) (>= I124 (- 9999999999999))) (= I124 0)))
(assert (and (<= I125 99999999999999) (>= I125 (- 9999999999999))))
(set-info :base-constraint-type |domainconstraints date-fields|)
(assert (and (ite B105-F (and (> I105-y 1900) (< I105-y 2100)) (= I105-y 0)) (ite B105-F (and (> I105-m 0) (<= I105-m 12)) (= I105-m 0)) (ite B105-F (and (> I105-d 0) (<= I105-d (ite (or (= I105-m 0) (= I105-m 1) (= I105-m 3) (= I105-m 5) (= I105-m 7) (= I105-m 8) (= I105-m 10) (= I105-m 12)) 31 (ite (or (= I105-m 4) (= I105-m 6) (= I105-m 9) (= I105-m 11)) 30 (ite (= (mod I105-y 4) 0) 29 28))))) (= I105-d 0))))
(assert (ite B8-F (and (> I8-y 1900) (< I8-y 2100)) (= I8-y 0)))
(assert (and (ite B14-F (and (> I14-y 1900) (< I14-y 2100)) (= I14-y 0)) (ite B14-F (and (> I14-m 0) (<= I14-m 12)) (= I14-m 0)) (ite B14-F (and (> I14-d 0) (<= I14-d (ite (or (= I14-m 0) (= I14-m 1) (= I14-m 3) (= I14-m 5) (= I14-m 7) (= I14-m 8) (= I14-m 10) (= I14-m 12)) 31 (ite (or (= I14-m 4) (= I14-m 6) (= I14-m 9) (= I14-m 11)) 30 (ite (= (mod I14-y 4) 0) 29 28))))) (= I14-d 0))))
(assert (and (ite B13-F (and (> I13-y 1900) (< I13-y 2100)) (= I13-y 0)) (ite B13-F (and (> I13-m 0) (<= I13-m 12)) (= I13-m 0)) (ite B13-F (and (> I13-d 0) (<= I13-d (ite (or (= I13-m 0) (= I13-m 1) (= I13-m 3) (= I13-m 5) (= I13-m 7) (= I13-m 8) (= I13-m 10) (= I13-m 12)) 31 (ite (or (= I13-m 4) (= I13-m 6) (= I13-m 9) (= I13-m 11)) 30 (ite (= (mod I13-y 4) 0) 29 28))))) (= I13-d 0))))
(assert (and (ite B65-F (and (> I65-y 1900) (< I65-y 2100)) (= I65-y 0)) (ite B65-F (and (> I65-m 0) (<= I65-m 12)) (= I65-m 0)) (ite B65-F (and (> I65-d 0) (<= I65-d (ite (or (= I65-m 0) (= I65-m 1) (= I65-m 3) (= I65-m 5) (= I65-m 7) (= I65-m 8) (= I65-m 10) (= I65-m 12)) 31 (ite (or (= I65-m 4) (= I65-m 6) (= I65-m 9) (= I65-m 11)) 30 (ite (= (mod I65-y 4) 0) 29 28))))) (= I65-d 0))))
(assert (and (ite B64-F (and (> I64-y 1900) (< I64-y 2100)) (= I64-y 0)) (ite B64-F (and (> I64-m 0) (<= I64-m 12)) (= I64-m 0)) (ite B64-F (and (> I64-d 0) (<= I64-d (ite (or (= I64-m 0) (= I64-m 1) (= I64-m 3) (= I64-m 5) (= I64-m 7) (= I64-m 8) (= I64-m 10) (= I64-m 12)) 31 (ite (or (= I64-m 4) (= I64-m 6) (= I64-m 9) (= I64-m 11)) 30 (ite (= (mod I64-y 4) 0) 29 28))))) (= I64-d 0))))
(assert (and (ite B66-F (and (> I66-y 1900) (< I66-y 2100)) (= I66-y 0)) (ite B66-F (and (> I66-m 0) (<= I66-m 12)) (= I66-m 0)) (ite B66-F (and (> I66-d 0) (<= I66-d (ite (or (= I66-m 0) (= I66-m 1) (= I66-m 3) (= I66-m 5) (= I66-m 7) (= I66-m 8) (= I66-m 10) (= I66-m 12)) 31 (ite (or (= I66-m 4) (= I66-m 6) (= I66-m 9) (= I66-m 11)) 30 (ite (= (mod I66-y 4) 0) 29 28))))) (= I66-d 0))))
(assert (and (ite B83-F (and (> I83-y 1900) (< I83-y 2100)) (= I83-y 0)) (ite B83-F (and (> I83-m 0) (<= I83-m 12)) (= I83-m 0)) (ite B83-F (and (> I83-d 0) (<= I83-d (ite (or (= I83-m 0) (= I83-m 1) (= I83-m 3) (= I83-m 5) (= I83-m 7) (= I83-m 8) (= I83-m 10) (= I83-m 12)) 31 (ite (or (= I83-m 4) (= I83-m 6) (= I83-m 9) (= I83-m 11)) 30 (ite (= (mod I83-y 4) 0) 29 28))))) (= I83-d 0))))
(assert (and (ite B33-F (and (> I33-y 1900) (< I33-y 2100)) (= I33-y 0)) (ite B33-F (and (> I33-m 0) (<= I33-m 12)) (= I33-m 0)) (ite B33-F (and (> I33-d 0) (<= I33-d (ite (or (= I33-m 0) (= I33-m 1) (= I33-m 3) (= I33-m 5) (= I33-m 7) (= I33-m 8) (= I33-m 10) (= I33-m 12)) 31 (ite (or (= I33-m 4) (= I33-m 6) (= I33-m 9) (= I33-m 11)) 30 (ite (= (mod I33-y 4) 0) 29 28))))) (= I33-d 0))))
(assert (and (ite B32-F (and (> I32-y 1900) (< I32-y 2100)) (= I32-y 0)) (ite B32-F (and (> I32-m 0) (<= I32-m 12)) (= I32-m 0)) (ite B32-F (and (> I32-d 0) (<= I32-d (ite (or (= I32-m 0) (= I32-m 1) (= I32-m 3) (= I32-m 5) (= I32-m 7) (= I32-m 8) (= I32-m 10) (= I32-m 12)) 31 (ite (or (= I32-m 4) (= I32-m 6) (= I32-m 9) (= I32-m 11)) 30 (ite (= (mod I32-y 4) 0) 29 28))))) (= I32-d 0))))
(assert (or (< I31-s-y I31-e-y) (and (= I31-s-y I31-e-y) (< I31-s-m I31-e-m)) (and (= I31-s-y I31-e-y) (= I31-s-m I31-e-m) (<= I31-s-d I31-e-d))))
(assert (=> B31-F (and (>= I31-e-d 1) (<= I31-e-d (ite (or (= I31-e-m 0) (= I31-e-m 1) (= I31-e-m 3) (= I31-e-m 5) (= I31-e-m 7) (= I31-e-m 8) (= I31-e-m 10) (= I31-e-m 12)) 31 (ite (or (= I31-e-m 4) (= I31-e-m 6) (= I31-e-m 9) (= I31-e-m 11)) 30 (ite (= (mod I31-e-y 4) 0) 29 28)))))))
(assert (=> B31-F (and (>= I31-e-m 1) (<= I31-e-m 12))))
(assert (=> B31-F (and (>= I31-e-y 1901) (<= I31-e-y 2099))))
(assert (=> B31-F (and (>= I31-s-d 1) (<= I31-s-d (ite (or (= I31-s-m 0) (= I31-s-m 1) (= I31-s-m 3) (= I31-s-m 5) (= I31-s-m 7) (= I31-s-m 8) (= I31-s-m 10) (= I31-s-m 12)) 31 (ite (or (= I31-s-m 4) (= I31-s-m 6) (= I31-s-m 9) (= I31-s-m 11)) 30 (ite (= (mod I31-s-y 4) 0) 29 28)))))))
(assert (=> B31-F (and (>= I31-s-m 1) (<= I31-s-m 12))))
(assert (=> B31-F (and (>= I31-s-y 1901) (<= I31-s-y 2099))))
(assert (and (> I51-y 1900) (< I51-y 2100) (> I51-m 0) (<= I51-m 12) (> I51-d 0) (<= I51-d (ite (or (= I51-m 0) (= I51-m 1) (= I51-m 3) (= I51-m 5) (= I51-m 7) (= I51-m 8) (= I51-m 10) (= I51-m 12)) 31 (ite (or (= I51-m 4) (= I51-m 6) (= I51-m 9) (= I51-m 11)) 30 (ite (= (mod I51-y 4) 0) 29 28))))))
(assert (and (> I50-y 1900) (< I50-y 2100) (> I50-m 0) (<= I50-m 12) (> I50-d 0) (<= I50-d (ite (or (= I50-m 0) (= I50-m 1) (= I50-m 3) (= I50-m 5) (= I50-m 7) (= I50-m 8) (= I50-m 10) (= I50-m 12)) 31 (ite (or (= I50-m 4) (= I50-m 6) (= I50-m 9) (= I50-m 11)) 30 (ite (= (mod I50-y 4) 0) 29 28))))))
(assert (or (< I49-s-y I49-e-y) (and (= I49-s-y I49-e-y) (< I49-s-m I49-e-m)) (and (= I49-s-y I49-e-y) (= I49-s-m I49-e-m) (<= I49-s-d I49-e-d))))
(assert (and (>= I49-e-d 1) (<= I49-e-d (ite (or (= I49-e-m 0) (= I49-e-m 1) (= I49-e-m 3) (= I49-e-m 5) (= I49-e-m 7) (= I49-e-m 8) (= I49-e-m 10) (= I49-e-m 12)) 31 (ite (or (= I49-e-m 4) (= I49-e-m 6) (= I49-e-m 9) (= I49-e-m 11)) 30 (ite (= (mod I49-e-y 4) 0) 29 28))))))
(assert (and (>= I49-e-m 1) (<= I49-e-m 12)))
(assert (and (>= I49-e-y 1901) (<= I49-e-y 2099)))
(assert (and (>= I49-s-d 1) (<= I49-s-d (ite (or (= I49-s-m 0) (= I49-s-m 1) (= I49-s-m 3) (= I49-s-m 5) (= I49-s-m 7) (= I49-s-m 8) (= I49-s-m 10) (= I49-s-m 12)) 31 (ite (or (= I49-s-m 4) (= I49-s-m 6) (= I49-s-m 9) (= I49-s-m 11)) 30 (ite (= (mod I49-s-y 4) 0) 29 28))))))
(assert (and (>= I49-s-m 1) (<= I49-s-m 12)))
(assert (and (>= I49-s-y 1901) (<= I49-s-y 2099)))
(set-info :base-constraint-type |constraints for date-strategy|)
(assert (=> B12-F (and (> I12-N 1900) (< I12-N 2100))))
(assert (=> B12-F (and (> I12-N 1900) (< I12-N 2100))))
(set-info :base-constraint-type |domainconstraints string fields|)
(assert (ite B12-F (and (>= I12-N 0) (<= I12-N 9999)) (= I12-N 0)))
(assert (ite B63-F (and (>= I63-N 0) (<= I63-N 9999)) (= I63-N 0)))
(set-info :base-constraint-type |domainconstraints index-based string fields|)
(assert (or (= I2-N 0) (= I2-N 1)))
(assert (ite B9-F (or (= I9-N 1) (= I9-N 2) (= I9-N 3) (= I9-N 4) (= I9-N 5) (= I9-N 6) (= I9-N 7) (= I9-N 8) (= I9-N 9) (= I9-N 10) (= I9-N 11) (= I9-N 12)) (= I9-N 0)))
(assert (or (= I1-i 1) (= I1-i 2) (= I1-i 3) (= I1-i 4) (= I1-i 5) (= I1-i 6) (= I1-i 7) (= I1-i 8) (= I1-i 9) (= I1-i 10) (= I1-i 11) (= I1-i 12) (= I1-i 13) (= I1-i 14) (= I1-i 15)))
(assert (ite B3-F (or (= I3-i 1) (= I3-i 2) (= I3-i 3) (= I3-i 4) (= I3-i 5) (= I3-i 6) (= I3-i 7) (= I3-i 8) (= I3-i 9) (= I3-i 10) (= I3-i 11) (= I3-i 12) (= I3-i 13) (= I3-i 14) (= I3-i 15)) (= I3-i 0)))
(set-info :base-constraint-type |constraints from validation-rules|)
(assert (not (and B108-F B107-F (distinct I107 0) (distinct I108 (div (* I107 15) 100)))))
(assert (not (and B105-F (or (< I105-y 2025) (> I105-y 2025)))))
(assert (not (and (or B128-F B127-F) (not (and B128-F B127-F)))))
(assert (not (distinct 1 (+ I18 I28 I37 I42 I47 I55 I70 I75 I80 I88 I93 I98 (- 8575)))))
(assert (not (distinct I104 (+ I19 I24 I38 I43 I48 I71 I76 I81 I89 I94 I99 I103 (- 5296956770720)))))
(assert (not (and B8-F (or (< I8-y 2025) (> I8-y 2025)))))
(assert (not (and B14-F B13-F (or (> I14-y I13-y) (and (= I14-y I13-y) (> I14-m I13-m)) (and (= I14-y I13-y) (= I14-m I13-m) (> I14-d I13-d))))))
(assert (not (and B13-F (or (distinct I13-y (ite B8-F I8-y 0)) (distinct I13-m I9-N)))))
(assert (not (and B12-F B14-F (>= (ite (and (>= I12-N 1) (<= I12-N 9999)) (+ (- I14-y I12-N) (ite (or (< I12-N I14-y) (and (= I12-N I14-y) (< 5 I14-m)) (and (= I12-N I14-y) (= 5 I14-m) (< 1 I14-d)) (and (= I12-N I14-y) (= 5 I14-m) (= 1 I14-d))) (ite (or (< 5 I14-m) (and (= 5 I14-m) (<= 1 I14-d))) 0 (- 1)) (ite (or (> 5 I14-m) (and (= 5 I14-m) (>= 1 I14-d))) 0 1))) 0) 1))))
(assert (not (and B13-F (< I13-y I12-N))))
(assert (not (and (not (and B14-F B13-F B12-F)) (or B15-F B20-F B25-F))))
(assert (not (and (or B12-F B13-F B14-F) (not B15-F) (not B20-F) (not B25-F))))
(assert (not (and B12-F (> I12-N 2025))))
(assert (not (and (or B17-F B22-F B27-F) (or (= I18 0) (and (distinct I27 0) (= I28 0))))))
(assert (not (and B18-F B19-F (> (ite (>= (- I19 (div (* I18 55) 10)) 0) (- I19 (div (* I18 55) 10)) (- (- I19 (div (* I18 55) 10)))) 100))))
(assert (not (and (or B16-F B17-F B18-F B19-F) (not (and B16-F B17-F B18-F B19-F)))))
(assert (not (and (or B18-F B23-F B28-F) (or (> (* I18 100) 115) (> (* I28 100) (+ (* I27 15) 100))))))
(assert (not (and B23-F B24-F (> (ite (>= (- I24 (- 47163)) 0) (- I24 (- 47163)) (- (- I24 (- 47163)))) 100))))
(assert (not (and (or B21-F B22-F B23-F B24-F) (not (and B21-F B22-F B23-F B24-F)))))
(assert (not (and B28-F B29-F (> (ite (>= (- (- 5296956769230) (div (* I28 55) 10)) 0) (- (- 5296956769230) (div (* I28 55) 10)) (- (- (- 5296956769230) (div (* I28 55) 10)))) 100))))
(assert (not (and (or B26-F B27-F B28-F B29-F) (not (and B26-F B27-F B28-F B29-F)))))
(assert (not (and B65-F (not B66-F))))
(assert (not (and B65-F B64-F (or (< I65-y I64-y) (and (= I65-y I64-y) (< I65-m I64-m)) (and (= I65-y I64-y) (= I65-m I64-m) (< I65-d I64-d)) (and (= I65-y I64-y) (= I65-m I64-m) (= I65-d I64-d))))))
(assert (not (and B65-F (< I65-y I63-N))))
(assert (not (and B65-F B66-F (or (< I65-y I66-y) (and (= I65-y I66-y) (< I65-m I66-m)) (and (= I65-y I66-y) (= I65-m I66-m) (< I65-d I66-d))))))
(assert (not (and B65-F (or (< I65-y (ite B8-F I8-y 0)) (and (= I65-y (ite B8-F I8-y 0)) (< I65-m I9-N))))))
(assert (not (and B66-F (< I66-y 2023))))
(assert (not (and (not (and B63-F B64-F)) (or B67-F B72-F B77-F))))
(assert (not (and B64-F (distinct I64-y I63-N))))
(assert (not (and (or B63-F B64-F B66-F) (not B67-F) (not B72-F) (not B77-F))))
(assert (not (and B64-F (or (> I64-y (ite B8-F I8-y 0)) (and (= I64-y (ite B8-F I8-y 0)) (> I64-m I9-N))))))
(assert (not (and B63-F (> I63-N 2025))))
(assert (not (and B63-F (or (and B64-F (or (< I64-y 2022) (and (= I64-y 2022) (< I64-m 10)) (and (= I64-y 2022) (= I64-m 10) (< I64-d 1))) (< I63-N 2025)) (and B64-F (or (> I64-y 2022) (and (= I64-y 2022) (> I64-m 10)) (and (= I64-y 2022) (= I64-m 10) (> I64-d 1)) (and (= I64-y 2022) (= I64-m 10) (= I64-d 1))) (or (and (< I63-N 2025) (= I63-N 2024) (>= I9-N 5) (<= I9-N 12)) (and (< I63-N 2025) (distinct I63-N 2024))))))))
(assert (not (and B64-F (or (and (= I64-y (ite B8-F I8-y 0)) (< I64-m (- I9-N 4))) (and (distinct I64-y (ite B8-F I8-y 0)) (< I64-y (- (ite B8-F I8-y 0) 1))) (and (distinct I64-y (ite B8-F I8-y 0)) (= I64-y (- (ite B8-F I8-y 0) 1)) (> I64-m 8) (< I64-m (- (+ I9-N 12) 4))) (and (distinct I64-y (ite B8-F I8-y 0)) (= I64-y (- (ite B8-F I8-y 0) 1)) (<= I64-m 8))))))
(assert (not (and (or B69-F B74-F B79-F) (or (and (distinct I69 0) (= I70 0)) (and (distinct I74 0) (= I75 0)) (= I80 0)))))
(assert (not (and B70-F B71-F (> (ite (>= (- I71 (div (* I70 55) 10)) 0) (- I71 (div (* I70 55) 10)) (- (- I71 (div (* I70 55) 10)))) 100))))
(assert (not (and (or B68-F B69-F B70-F B71-F) (not (and B68-F B69-F B70-F B71-F)))))
(assert (not (and (or B70-F B75-F B80-F) (or (> (* I70 100) (+ (* I69 15) 100)) (> (* I75 100) (+ (* I74 15) 100)) (> (* I80 100) (- 14999999999885))))))
(assert (not (and B75-F B76-F (> (ite (>= (- I76 (div (* I75 55) 10)) 0) (- I76 (div (* I75 55) 10)) (- (- I76 (div (* I75 55) 10)))) 100))))
(assert (not (and (or B73-F B74-F B75-F B76-F) (not (and B73-F B74-F B75-F B76-F)))))
(assert (not (and B80-F B81-F (> (ite (>= (- I81 (div (* I80 55) 10)) 0) (- I81 (div (* I80 55) 10)) (- (- I81 (div (* I80 55) 10)))) 100))))
(assert (not (and (or B78-F B79-F B80-F B81-F) (not (and B78-F B79-F B80-F B81-F)))))
(assert (not (and (not (and B84-F B83-F)) (or B85-F B90-F B95-F))))
(assert (not (and (or B84-F B83-F) (not B85-F) (not B90-F) (not B95-F))))
(assert (not (and (or B87-F B92-F B97-F) (or (and (distinct I87 0) (= I88 0)) (and (distinct I92 0) (= I93 0)) (and (distinct I97 0) (= I98 0))))))
(assert (not (and B88-F B89-F (> (ite (>= (- I89 (div (* I88 55) 10)) 0) (- I89 (div (* I88 55) 10)) (- (- I89 (div (* I88 55) 10)))) 100))))
(assert (not (and (or B86-F B87-F B88-F B89-F) (not (and B86-F B87-F B88-F B89-F)))))
(assert (not (and (or B88-F B93-F B98-F) (or (> (* I88 100) (+ (* I87 15) 100)) (> (* I93 100) (+ (* I92 15) 100)) (> (* I98 100) (+ (* I97 15) 100))))))
(assert (not (and B93-F B94-F (> (ite (>= (- I94 (div (* I93 55) 10)) 0) (- I94 (div (* I93 55) 10)) (- (- I94 (div (* I93 55) 10)))) 100))))
(assert (not (and (or B91-F B92-F B93-F B94-F) (not (and B91-F B92-F B93-F B94-F)))))
(assert (not (and B98-F B99-F (> (ite (>= (- I99 (div (* I98 55) 10)) 0) (- I99 (div (* I98 55) 10)) (- (- I99 (div (* I98 55) 10)))) 100))))
(assert (not (and (or B96-F B97-F B98-F B99-F) (not (and B96-F B97-F B98-F B99-F)))))
(assert (not (and B102-F B103-F (> (ite (>= (- I103 (- 6)) 0) (- I103 (- 6)) (- (- I103 (- 6)))) 100))))
(assert (not (and B83-F (or (> I83-y (ite B8-F I8-y 0)) (and (> I83-m I9-N) (= I83-y (ite B8-F I8-y 0)))))))
(assert (not (and B33-F B32-F (or (> I33-y I32-y) (and (= I33-y I32-y) (> I33-m I32-m)) (and (= I33-y I32-y) (= I33-m I32-m) (> I33-d I32-d))))))
(assert (not (and B32-F (or (distinct I32-y (ite B8-F I8-y 0)) (distinct I32-m I9-N)))))
(assert (not (and B32-F (< I32-y 2025))))
(assert (not (and (not (and B33-F B32-F B31-F)) (or B34-F B39-F B44-F))))
(assert (not (and (or B33-F B32-F B31-F) (not B34-F) (not B39-F) (not B44-F))))
(assert (not (and (or B36-F B41-F B46-F) (or (and (distinct I36 0) (= I37 0)) (and (distinct I41 0) (= I42 0)) (and (distinct I46 0) (= I47 0))))))
(assert (not (and B37-F B38-F (> (ite (>= (- I38 (div (* I37 55) 10)) 0) (- I38 (div (* I37 55) 10)) (- (- I38 (div (* I37 55) 10)))) 100))))
(assert (not (and (or B35-F B36-F B37-F B38-F) (not (and B35-F B36-F B37-F B38-F)))))
(assert (not (and (or B37-F B42-F B47-F) (or (> (* I37 100) (+ (* I36 15) 100)) (> (* I42 100) (+ (* I41 15) 100)) (> (* I47 100) (+ (* I46 15) 100))))))
(assert (not (and B42-F B43-F (> (ite (>= (- I43 (div (* I42 55) 10)) 0) (- I43 (div (* I42 55) 10)) (- (- I43 (div (* I42 55) 10)))) 100))))
(assert (not (and (or B40-F B41-F B42-F B43-F) (not (and B40-F B41-F B42-F B43-F)))))
(assert (not (and B47-F B48-F (> (ite (>= (- I48 (div (* I47 55) 10)) 0) (- I48 (div (* I47 55) 10)) (- (- I48 (div (* I47 55) 10)))) 100))))
(assert (not (and (or B45-F B46-F B47-F B48-F) (not (and B45-F B46-F B47-F B48-F)))))
(assert (not (and B31-F B32-F (or (> I31-e-y I32-y) (and (= I31-e-y I32-y) (> I31-e-m I32-m)) (and (= I31-e-y I32-y) (= I31-e-m I32-m) (> I31-e-d I32-d))))))
(assert (not (and B31-F (not B32-F))))
(assert (not (and B31-F (or (< I31-s-y (- I31-e-y 1)) (and (= I31-s-y (- I31-e-y 1)) (< I31-s-m I31-e-m)) (and (= I31-s-y (- I31-e-y 1)) (= I31-s-m I31-e-m) (< I31-s-d (+ I31-e-d 1)))))))
(assert (not (or (> I51-y I50-y) (and (= I51-y I50-y) (> I51-m I50-m)) (and (= I51-y I50-y) (= I51-m I50-m) (> I51-d I50-d)))))
(assert (not (or (distinct I50-y (ite B8-F I8-y 0)) (distinct I50-m I9-N))))
(assert (not (< I50-y 2025)))
(assert (not (and (distinct I54 0) (= I55 0))))
(assert (not (or (> (* I55 100) (+ (* I54 15) 100)) (> 100 (+ (* I59 15) 100)))))
(assert (not (and B55-F B56-F (> (ite (>= (- (- 1490) (div (* I55 55) 10)) 0) (- (- 1490) (div (* I55 55) 10)) (- (- (- 1490) (div (* I55 55) 10)))) 100))))
(assert (not (and (or B53-F B54-F B55-F B56-F) (not (and B53-F B54-F B55-F B56-F)))))
(assert (not (and (or B58-F B59-F B60-F B61-F) (not (and B58-F B59-F B60-F B61-F)))))
(assert (not (or (> I49-e-y I50-y) (and (= I49-e-y I50-y) (> I49-e-m I50-m)) (and (= I49-e-y I50-y) (= I49-e-m I50-m) (> I49-e-d I50-d)))))
(assert (not (or (< I49-s-y (- I49-e-y 1)) (and (= I49-s-y (- I49-e-y 1)) (< I49-s-m I49-e-m)) (and (= I49-s-y (- I49-e-y 1)) (= I49-s-m I49-e-m) (< I49-s-d (+ I49-e-d 1))))))
(assert (not B105-F))
(assert (and B8-F B9-F))
(assert (not (and B8-F B9-F (or (< 2026 I8-y) (and (= 2026 I8-y) (<= 6 I9-N))))))
(assert (not (and B8-F B9-F (or (< 2027 I8-y) (and (= 2027 I8-y) (<= 6 I9-N))))))
(assert (not (and B130-F (not (and B132-F B133-F)))))
(assert (not (and (not B130-F) (or B132-F B133-F))))
(assert (not (and B3-F (= I2-N 0))))
(assert (not (and B3-F (= I3-i I1-i))))
(assert (not (and (or B112-F B111-F B113-F B109-F B110-F B114-F B115-F B116-F B117-F B124-F B118-F B121-F B122-F B119-F B120-F B123-F) (distinct I125 (+ I112 I111 I113 I109 I110 I114 I115 I116 I117 I124 I121 I122 I119 I120 I123 99999999999999)))))
(assert (not (and (not B112-F) (not B111-F) (not B113-F) (not B109-F) (not B110-F) (not B114-F) (not B115-F) (not B116-F) (not B117-F) (not B124-F) (not B118-F) (not B121-F) (not B122-F) (not B119-F) (not B120-F) (not B123-F))))
(assert (not (distinct I125 100)))
(set-info :major-phase |control constraints|)
(push 1)
(assert B48-F)
(set-info :status sat)
(check-sat)
(push 1)
(assert B133-F)
(set-info :status sat)
(check-sat)
(push 1)
(assert B40-F)
(set-info :status sat)
(check-sat)
(push 1)
(assert B18-F)
(set-info :status sat)
(check-sat)
(push 1)
(assert B27-F)
(set-info :status sat)
(check-sat)
(push 1)
(assert B54-F)
(set-info :status sat)
(check-sat)
(push 1)
(assert B32-F)
(set-info :status sat)
(check-sat)
(push 1)
(assert B19-F)
(set-info :status sat)
(check-sat)
(push 1)
(assert B43-F)
(set-info :status sat)
(check-sat)
(push 1)
(assert B97-F)
(set-info :status sat)
(check-sat)
(push 1)
(assert B96-F)
(set-info :status sat)
(check-sat)
(push 1)
(assert B92-F)
(set-info :status sat)
(check-sat)
(push 1)
(assert B113-F)
(set-info :status sat)
(check-sat)
(push 1)
(assert B24-F)
(set-info :status sat)
(check-sat)
(push 1)
(assert B84-F)
(set-info :status sat)
(check-sat)
(push 1)
(assert B68-F)
(set-info :status sat)
(check-sat)
(push 1)
(assert B114-F)
(set-info :status sat)
(check-sat)
(push 1)
(assert B12-F)
(set-info :status sat)
(check-sat)
(push 1)
(assert B115-F)
(set-info :status sat)
(check-sat)
(push 1)
(assert B31-F)
(set-info :status sat)
(check-sat)
(push 1)
(assert B6-F)
(set-info :status sat)
(check-sat)
(push 1)
(assert B55-F)
(set-info :status sat)
(check-sat)
(push 1)
(assert B93-F)
(set-info :status sat)
(check-sat)
(push 1)
(assert B76-F)
(set-info :status sat)
(check-sat)
(push 1)
(assert B4-F)
(set-info :status sat)
(check-sat)
(push 1)
(assert B94-F)
(set-info :status sat)
(check-sat)
(push 1)
(assert B58-F)
(set-info :status sat)
(check-sat)
(push 1)
(assert B33-F)
(set-info :status sat)
(check-sat)
(push 1)
(assert B119-F)
(set-info :status sat)
(check-sat)
(push 1)
(assert B103-F)
(set-info :status sat)
(check-sat)
(push 1)
(assert B120-F)
(set-info :status sat)
(check-sat)
(push 1)
(assert B109-F)
(set-info :status sat)
(check-sat)
(push 1)
(assert B122-F)
(set-info :status sat)
(check-sat)
(push 1)
(assert B110-F)
(set-info :status sat)
(check-sat)
(push 1)
(assert B38-F)
(set-info :status sat)
(check-sat)
(push 1)
(assert B99-F)
(set-info :status sat)
(check-sat)
(push 1)
(assert B98-F)
(set-info :status sat)
(check-sat)
(push 1)
(assert B45-F)
(set-info :status sat)
(check-sat)
(push 1)
(assert B26-F)
(set-info :status sat)
(check-sat)
(push 1)
(assert B63-F)
(set-info :status sat)
(check-sat)
(push 1)
(assert B16-F)
(set-info :status sat)
(check-sat)
(push 1)
(assert B65-F)
(set-info :status sat)
(check-sat)
(push 1)
(assert B134-F)
(set-info :status sat)
(check-sat)
(push 1)
(assert B132-F)
(set-info :status sat)
(check-sat)
(push 1)
(assert B9-F)
(set-info :status sat)
(check-sat)
(push 1)
(assert B70-F)
(set-info :status sat)
(check-sat)
(push 1)
(assert B28-F)
(set-info :status sat)
(check-sat)
(push 1)
(assert B130-F)
(set-info :status sat)
(check-sat)
(push 1)
(assert B71-F)
(set-info :status sat)
(check-sat)
(push 1)
(assert B69-F)
(set-info :status sat)
(check-sat)
(push 1)
(assert B128-F)
(set-info :status sat)
(check-sat)
(push 1)
(assert B36-F)
(set-info :status sat)
(check-sat)
(push 1)
(assert B81-F)
(set-info :status sat)
(check-sat)
(push 1)
(assert B21-F)
(set-info :status sat)
(check-sat)
(push 1)
(assert B66-F)
(set-info :status sat)
(check-sat)
(push 1)
(assert B88-F)
(set-info :status sat)
(check-sat)
(push 1)
(assert B108-F)
(set-info :status unsat)
(check-sat)
(pop 1)
(push 1)
(assert B86-F)
(set-info :status sat)
(check-sat)
(push 1)
(assert B117-F)
(set-info :status sat)
(check-sat)
(push 1)
(assert B74-F)
(set-info :status sat)
(check-sat)
(push 1)
(assert B124-F)
(set-info :status sat)
(check-sat)
(push 1)
(assert B136-F)
(set-info :status sat)
(check-sat)
(push 1)
(assert B41-F)
(set-info :status sat)
(check-sat)
(push 1)
(assert B53-F)
(set-info :status sat)
(check-sat)
(push 1)
(assert B5-F)
(set-info :status sat)
(check-sat)
(push 1)
(assert B8-F)
(set-info :status sat)
(check-sat)
(push 1)
(assert B13-F)
(set-info :status sat)
(check-sat)
(push 1)
(assert B116-F)
(set-info :status sat)
(check-sat)
(push 1)
(assert B73-F)
(set-info :status sat)
(check-sat)
(push 1)
(assert B78-F)
(set-info :status sat)
(check-sat)
(push 1)
(assert B105-F)
(set-info :status unsat)
(check-sat)
(pop 1)
(push 1)
(assert B3-F)
(set-info :status sat)
(check-sat)
(push 1)
(assert B10-F)
(set-info :status sat)
(check-sat)
(push 1)
(assert B14-F)
(set-info :status sat)
(check-sat)
(push 1)
(assert B91-F)
(set-info :status sat)
(check-sat)
(push 1)
(assert B127-F)
(set-info :status sat)
(check-sat)
(push 1)
(assert B83-F)
(set-info :status sat)
(check-sat)
(push 1)
(assert B102-F)
(set-info :status sat)
(check-sat)
(push 1)
(assert B107-F)
(set-info :status unsat)
(check-sat)
(pop 1)
(push 1)
(assert B123-F)
(set-info :status sat)
(check-sat)
(push 1)
(assert B121-F)
(set-info :status sat)
(check-sat)
(push 1)
(assert B42-F)
(set-info :status sat)
(check-sat)
(push 1)
(assert B64-F)
(set-info :status sat)
(check-sat)
(push 1)
(assert B61-F)
(set-info :status sat)
(check-sat)
(push 1)
(assert B60-F)
(set-info :status sat)
(check-sat)
(push 1)
(assert B35-F)
(set-info :status sat)
(check-sat)
(push 1)
(assert B22-F)
(set-info :status sat)
(check-sat)
(push 1)
(assert B135-F)
(set-info :status sat)
(check-sat)
(push 1)
(assert B79-F)
(set-info :status sat)
(check-sat)
(push 1)
(assert B112-F)
(set-info :status sat)
(check-sat)
(push 1)
(assert B118-F)
(set-info :status sat)
(check-sat)
(push 1)
(assert B111-F)
(set-info :status sat)
(check-sat)
(push 1)
(assert B89-F)
(set-info :status sat)
(check-sat)
(push 1)
(assert B87-F)
(set-info :status sat)
(check-sat)
(push 1)
(assert B101-F)
(set-info :status sat)
(check-sat)
(push 1)
(assert B46-F)
(set-info :status sat)
(check-sat)
(push 1)
(assert B29-F)
(set-info :status sat)
(check-sat)
(push 1)
(assert B80-F)
(set-info :status sat)
(check-sat)
(push 1)
(assert B56-F)
(set-info :status sat)
(check-sat)
(push 1)
(assert B17-F)
(set-info :status sat)
(check-sat)
(push 1)
(assert B23-F)
(set-info :status sat)
(check-sat)
(push 1)
(assert B47-F)
(set-info :status sat)
(check-sat)
(push 1)
(assert B59-F)
(set-info :status sat)
(check-sat)
(push 1)
(assert B37-F)
(set-info :status sat)
(check-sat)
(push 1)
(assert B75-F)
(set-info :status sat)
(check-sat)
(exit)

